(set-logic QF_S)
(declare-fun var0 () String)
(declare-fun var1 () String)
(declare-fun var2 () String)
(declare-fun var3 () String)
(declare-fun var4 () String)
(declare-fun var5 () String)
(declare-fun var6 () String)
(declare-fun var7 () String)
(declare-fun var8 () String)
(declare-fun var9 () String)
(declare-fun var10 () String)
(declare-fun var11 () String)
(declare-fun var12 () String)
(declare-fun var13 () String)
(declare-fun var14 () String)
(declare-fun var15 () String)
(declare-fun var16 () String)
(declare-fun var17 () String)
(declare-fun var18 () String)
(declare-fun var19 () String)
(declare-fun var20 () String)
(declare-fun var21 () String)
(declare-fun var22 () String)
(declare-fun var23 () String)
(declare-fun var24 () String)
(declare-fun var25 () String)
(declare-fun var26 () String)
(declare-fun var27 () String)
(declare-fun var28 () String)
(declare-fun var29 () String)
(declare-fun var30 () String)
(declare-fun var31 () String)
(declare-fun var32 () String)
(declare-fun var33 () String)
(declare-fun var34 () String)
(declare-fun var35 () String)
(declare-fun var36 () String)
(declare-fun var37 () String)
(declare-fun var38 () String)
(declare-fun var39 () String)
(declare-fun var40 () String)
(declare-fun var41 () String)
(declare-fun var42 () String)
(declare-fun var43 () String)
(declare-fun var44 () String)
(declare-fun var45 () String)
(declare-fun var46 () String)
(declare-fun var47 () String)
(declare-fun var48 () String)
(declare-fun var49 () String)
(declare-fun var50 () String)
(declare-fun var51 () String)
(declare-fun var52 () String)
(declare-fun var53 () String)
(declare-fun var54 () String)
(declare-fun var55 () String)
(declare-fun var56 () String)
(declare-fun var57 () String)
(declare-fun var58 () String)
(declare-fun var59 () String)
(declare-fun var60 () String)
(assert (= var0 (str.++ var1 var2)))
(assert (= var2 (str.++ var3 var4)))
(assert (= var4 (str.++ var5 var6)))
(assert (= var6 (str.++ var7 var8)))
(assert (= var8 (str.++ var9 var10)))
(assert (= var10 (str.++ var11 var12)))
(assert (= var12 (str.++ var13 var14)))
(assert (= var14 (str.++ var15 var16)))
(assert (= var16 (str.++ var17 var18)))
(assert (= var18 (str.++ var19 var20)))
(assert (= var20 (str.++ var21 var22)))
(assert (= var22 (str.++ var23 var24)))
(assert (= var24 (str.++ var25 var26)))
(assert (= var26 (str.++ var27 var28)))
(assert (= var28 (str.++ var29 var30)))
(assert (= var30 (str.++ var31 var32)))
(assert (= var32 (str.++ var33 var34)))
(assert (= var34 (str.++ var35 var36)))
(assert (= var36 (str.++ var37 var38)))
(assert (= var38 (str.++ var39 var40)))
(assert (= var40 (str.++ var41 var42)))
(assert (= var42 (str.++ var43 var44)))
(assert (= var44 (str.++ var45 var46)))
(assert (= var46 (str.++ var47 var48)))
(assert (= var48 (str.++ var49 var50)))
(assert (= var50 (str.++ var51 var52)))
(assert (= var52 (str.++ var53 var54)))
(assert (= var54 (str.++ var55 var56)))
(assert (= var56 (str.++ var57 var58)))
(assert (= var58 (str.++ var59 var60)))
(assert (= var0 "solution"))
(assert (= "4" (str.at var41 338)))
(assert (= "(" (str.at var8 969)))
(assert (= "y" (str.at var54 58)))
(assert (= "3" (str.at var47 485)))
(assert (= "C" (str.at var34 854)))
(assert (= "3" (str.at var14 748)))
(assert (= "t" (str.at var0 145)))
(assert (= "+" (str.at var5 633)))
(assert (= """" (str.at var31 862)))
(assert (= "?" (str.at var4 236)))
(assert (= "1" (str.at var52 141)))
(assert (= "Q" (str.at var7 806)))
(assert (= "!" (str.at var8 884)))
(assert (= "h" (str.at var41 702)))
(assert (= "t" (str.at var24 985)))
(assert (= "&" (str.at var42 33)))
(assert (= "/" (str.at var42 948)))
(assert (= "h" (str.at var32 105)))
(assert (= "^" (str.at var45 82)))
(assert (= "s" (str.at var33 40)))
(assert (= "K" (str.at var37 455)))
(assert (= "e" (str.at var17 877)))
(assert (= "Q" (str.at var52 703)))
(assert (= "|" (str.at var11 179)))
(assert (= "5" (str.at var51 632)))
(assert (= "X" (str.at var35 784)))
(assert (= "!" (str.at var49 908)))
(assert (= "D" (str.at var48 723)))
(assert (= "U" (str.at var49 397)))
(assert (= "V" (str.at var4 910)))
(assert (= "9" (str.at var32 782)))
(assert (= ">" (str.at var19 101)))
(assert (= "k" (str.at var19 259)))
(assert (= "=" (str.at var34 131)))
(assert (= """" (str.at var50 163)))
(assert (= "i" (str.at var47 319)))
(assert (= ":" (str.at var24 950)))
(assert (= "b" (str.at var46 244)))
(assert (= "/" (str.at var40 874)))
(assert (= ":" (str.at var1 257)))
(assert (= "W" (str.at var24 514)))
(assert (= "M" (str.at var12 244)))
(assert (= "<" (str.at var36 506)))
(assert (= "h" (str.at var41 39)))
(assert (= "_" (str.at var29 280)))
(assert (= "Q" (str.at var46 269)))
(assert (= "g" (str.at var53 205)))
(assert (= "n" (str.at var23 204)))
(assert (= "k" (str.at var23 593)))
(assert (= "G" (str.at var1 908)))
(assert (= "o" (str.at var29 551)))
(assert (= "\\" (str.at var36 431)))
(assert (= "Q" (str.at var55 300)))
(assert (= "5" (str.at var14 507)))
(assert (= "L" (str.at var30 531)))
(assert (= "l" (str.at var55 393)))
(assert (= "Y" (str.at var40 872)))
(assert (= "p" (str.at var33 90)))
(assert (= ")" (str.at var52 30)))
(assert (= "&" (str.at var51 167)))
(assert (= "N" (str.at var1 5)))
(assert (= ")" (str.at var56 313)))
(assert (= "Z" (str.at var30 807)))
(assert (= "d" (str.at var7 261)))
(assert (= "(" (str.at var35 763)))
(assert (= "r" (str.at var2 802)))
(assert (= "?" (str.at var54 875)))
(assert (= "?" (str.at var6 560)))
(assert (= "P" (str.at var40 318)))
(assert (= "B" (str.at var12 359)))
(assert (= "+" (str.at var50 595)))
(assert (= "%" (str.at var35 794)))
(assert (= "{" (str.at var58 328)))
(assert (= """" (str.at var49 779)))
(assert (= "Y" (str.at var34 821)))
(assert (= "[" (str.at var58 589)))
(assert (= "s" (str.at var39 410)))
(assert (= "$" (str.at var29 842)))
(assert (= "7" (str.at var14 461)))
(assert (= "R" (str.at var59 728)))
(assert (= "}" (str.at var59 651)))
(assert (= ":" (str.at var15 338)))
(assert (= "*" (str.at var12 112)))
(assert (= "%" (str.at var2 697)))
(assert (= "f" (str.at var14 688)))
(assert (= "y" (str.at var35 444)))
(assert (= "N" (str.at var1 276)))
(assert (= "8" (str.at var26 380)))
(assert (= "|" (str.at var0 861)))
(assert (= "g" (str.at var4 487)))
(assert (= "F" (str.at var11 938)))
(assert (= "V" (str.at var40 160)))
(assert (= "W" (str.at var23 461)))
(assert (= "3" (str.at var47 196)))
(assert (= "p" (str.at var43 393)))
(assert (= "T" (str.at var58 296)))
(assert (= "&" (str.at var21 154)))
(assert (= "n" (str.at var50 954)))
(assert (= "^" (str.at var5 734)))
(assert (= "#" (str.at var46 609)))
(assert (= "z" (str.at var4 386)))
(assert (= "2" (str.at var42 80)))
(assert (= "$" (str.at var56 482)))
(assert (= "L" (str.at var31 972)))
(assert (= "q" (str.at var3 181)))
(assert (= "B" (str.at var1 969)))
(assert (= "`" (str.at var11 976)))
(assert (= "N" (str.at var27 980)))
(assert (= "G" (str.at var7 430)))
(assert (= "1" (str.at var56 772)))
(assert (= "n" (str.at var29 461)))
(assert (= "b" (str.at var24 562)))
(assert (= "G" (str.at var52 96)))
(assert (= "h" (str.at var6 199)))
(assert (= "t" (str.at var33 930)))
(assert (= "c" (str.at var56 4)))
(assert (= "\\" (str.at var0 643)))
(assert (= "6" (str.at var7 461)))
(assert (= "N" (str.at var28 341)))
(assert (= "c" (str.at var20 3)))
(assert (= "J" (str.at var30 683)))
(assert (= "." (str.at var11 31)))
(assert (= "i" (str.at var23 666)))
(assert (= "d" (str.at var33 258)))
(assert (= "k" (str.at var32 502)))
(assert (= "v" (str.at var37 844)))
(assert (= "V" (str.at var48 958)))
(assert (= "F" (str.at var48 758)))
(assert (= "W" (str.at var56 953)))
(assert (= "f" (str.at var12 449)))
(assert (= "%" (str.at var41 121)))
(assert (= "@" (str.at var32 1)))
(assert (= "q" (str.at var12 178)))
(assert (= "p" (str.at var24 86)))
(assert (= "I" (str.at var36 861)))
(assert (= ";" (str.at var57 715)))
(assert (= "4" (str.at var16 571)))
(assert (= "O" (str.at var46 286)))
(assert (= "c" (str.at var38 989)))
(assert (= "%" (str.at var59 689)))
(assert (= ":" (str.at var46 876)))
(assert (= "b" (str.at var23 259)))
(assert (= "T" (str.at var0 563)))
(assert (= "~" (str.at var6 270)))
(assert (= "s" (str.at var6 695)))
(assert (= "T" (str.at var2 163)))
(assert (= "A" (str.at var44 112)))
(assert (= "W" (str.at var26 348)))
(assert (= "*" (str.at var21 700)))
(assert (= "W" (str.at var40 801)))
(assert (= ")" (str.at var47 324)))
(assert (= "}" (str.at var1 822)))
(assert (= "P" (str.at var47 313)))
(assert (= "m" (str.at var11 995)))
(assert (= "|" (str.at var54 696)))
(assert (= "J" (str.at var16 399)))
(assert (= "K" (str.at var28 752)))
(assert (= "l" (str.at var9 572)))
(assert (= "W" (str.at var2 838)))
(assert (= "s" (str.at var23 364)))
(assert (= "M" (str.at var22 316)))
(assert (= "(" (str.at var34 627)))
(assert (= "W" (str.at var50 793)))
(assert (= ";" (str.at var5 202)))
(assert (= "v" (str.at var47 263)))
(assert (= "$" (str.at var4 902)))
(assert (= "B" (str.at var35 663)))
(assert (= "U" (str.at var27 694)))
(assert (= "m" (str.at var16 187)))
(assert (= "M" (str.at var0 293)))
(assert (= "=" (str.at var34 87)))
(assert (= "\\" (str.at var53 880)))
(assert (= "T" (str.at var3 353)))
(assert (= "l" (str.at var10 81)))
(assert (= "=" (str.at var1 188)))
(assert (= "}" (str.at var34 793)))
(assert (= "]" (str.at var36 130)))
(assert (= "+" (str.at var21 75)))
(assert (= "l" (str.at var29 595)))
(assert (= "S" (str.at var19 579)))
(assert (= "(" (str.at var39 775)))
(assert (= "4" (str.at var28 522)))
(assert (= "*" (str.at var54 57)))
(assert (= "=" (str.at var40 766)))
(assert (= "]" (str.at var17 629)))
(assert (= "~" (str.at var16 142)))
(assert (= "N" (str.at var52 446)))
(assert (= "a" (str.at var29 779)))
(assert (= "8" (str.at var56 389)))
(assert (= "=" (str.at var49 419)))
(assert (= "E" (str.at var34 22)))
(assert (= "\\" (str.at var4 69)))
(assert (= "H" (str.at var53 946)))
(assert (= "!" (str.at var23 760)))
(assert (= "#" (str.at var27 972)))
(assert (= "q" (str.at var6 47)))
(assert (= "+" (str.at var15 330)))
(assert (= "n" (str.at var52 869)))
(assert (= "E" (str.at var0 281)))
(assert (= "." (str.at var42 639)))
(assert (= "<" (str.at var27 10)))
(assert (= "z" (str.at var45 868)))
(assert (= "l" (str.at var33 670)))
(assert (= "7" (str.at var43 628)))
(assert (= "q" (str.at var32 477)))
(assert (= "f" (str.at var24 727)))
(assert (= "{" (str.at var17 59)))
(assert (= "v" (str.at var31 597)))
(assert (= "#" (str.at var2 243)))
(assert (= "}" (str.at var19 977)))
(assert (= "7" (str.at var36 413)))
(assert (= "[" (str.at var36 180)))
(assert (= "6" (str.at var6 414)))
(assert (= "[" (str.at var51 602)))
(assert (= "C" (str.at var2 242)))
(assert (= "?" (str.at var23 995)))
(assert (= "'" (str.at var53 261)))
(assert (= "H" (str.at var8 798)))
(assert (= "}" (str.at var15 636)))
(assert (= "V" (str.at var45 561)))
(assert (= "q" (str.at var31 642)))
(assert (= "'" (str.at var10 785)))
(assert (= "5" (str.at var8 906)))
(assert (= "E" (str.at var30 121)))
(assert (= "x" (str.at var49 228)))
(assert (= "R" (str.at var27 461)))
(assert (= "X" (str.at var47 16)))
(assert (= ":" (str.at var0 353)))
(assert (= "f" (str.at var12 79)))
(assert (= "r" (str.at var31 88)))
(assert (= "7" (str.at var39 79)))
(assert (= "/" (str.at var2 876)))
(assert (= "Z" (str.at var4 255)))
(assert (= "V" (str.at var18 682)))
(assert (= "s" (str.at var30 877)))
(assert (= "^" (str.at var47 550)))
(assert (= "$" (str.at var38 451)))
(assert (= "R" (str.at var41 369)))
(assert (= "f" (str.at var35 252)))
(assert (= "q" (str.at var42 694)))
(assert (= "," (str.at var0 856)))
(assert (= "w" (str.at var31 512)))
(assert (= "{" (str.at var45 302)))
(assert (= "A" (str.at var23 827)))
(assert (= ">" (str.at var27 85)))
(assert (= "a" (str.at var1 521)))
(assert (= "&" (str.at var52 595)))
(assert (= "}" (str.at var2 644)))
(assert (= "!" (str.at var22 293)))
(assert (= "1" (str.at var26 526)))
(assert (= "D" (str.at var52 265)))
(assert (= "5" (str.at var36 997)))
(assert (= "h" (str.at var35 775)))
(assert (= "O" (str.at var33 915)))
(assert (= "v" (str.at var31 247)))
(assert (= "%" (str.at var47 121)))
(assert (= "p" (str.at var48 965)))
(assert (= "R" (str.at var21 243)))
(assert (= """" (str.at var21 613)))
(assert (= "[" (str.at var54 465)))
(assert (= "t" (str.at var30 946)))
(assert (= "3" (str.at var29 8)))
(assert (= "{" (str.at var49 716)))
(assert (= "9" (str.at var6 482)))
(assert (= "c" (str.at var30 161)))
(assert (= "o" (str.at var26 534)))
(assert (= "H" (str.at var54 368)))
(assert (= "l" (str.at var3 243)))
(assert (= "p" (str.at var15 764)))
(assert (= "0" (str.at var15 209)))
(assert (= "X" (str.at var15 193)))
(assert (= "o" (str.at var49 216)))
(assert (= "+" (str.at var18 117)))
(assert (= "k" (str.at var59 166)))
(assert (= "T" (str.at var19 215)))
(assert (= "C" (str.at var31 267)))
(assert (= "p" (str.at var19 831)))
(assert (= "N" (str.at var57 785)))
(assert (= "Y" (str.at var6 383)))
(assert (= "5" (str.at var8 720)))
(assert (= "7" (str.at var11 624)))
(assert (= ">" (str.at var48 444)))
(assert (= "?" (str.at var40 354)))
(assert (= "<" (str.at var13 582)))
(assert (= "[" (str.at var11 967)))
(assert (= "h" (str.at var16 214)))
(assert (= "'" (str.at var34 846)))
(assert (= "0" (str.at var14 945)))
(assert (= "#" (str.at var45 703)))
(assert (= "i" (str.at var31 920)))
(assert (= "c" (str.at var13 666)))
(assert (= "=" (str.at var31 521)))
(assert (= "|" (str.at var47 436)))
(assert (= "." (str.at var8 737)))
(assert (= "O" (str.at var26 642)))
(assert (= "q" (str.at var0 89)))
(assert (= "Y" (str.at var52 155)))
(assert (= "G" (str.at var52 979)))
(assert (= "+" (str.at var20 103)))
(assert (= "6" (str.at var15 924)))
(assert (= "c" (str.at var6 114)))
(assert (= "X" (str.at var54 867)))
(assert (= "u" (str.at var42 565)))
(assert (= "?" (str.at var24 882)))
(assert (= "x" (str.at var37 980)))
(assert (= "$" (str.at var33 809)))
(assert (= "K" (str.at var32 962)))
(assert (= "&" (str.at var59 18)))
(assert (= "J" (str.at var11 951)))
(assert (= "_" (str.at var42 497)))
(assert (= "/" (str.at var18 540)))
(assert (= "8" (str.at var56 565)))
(assert (= "~" (str.at var19 712)))
(assert (= ":" (str.at var28 678)))
(assert (= "6" (str.at var39 137)))
(assert (= "b" (str.at var32 459)))
(assert (= "8" (str.at var33 202)))
(assert (= "W" (str.at var30 264)))
(assert (= "r" (str.at var11 276)))
(assert (= "/" (str.at var29 48)))
(assert (= "z" (str.at var55 995)))
(assert (= "#" (str.at var15 978)))
(assert (= "d" (str.at var6 727)))
(assert (= "G" (str.at var9 828)))
(assert (= "^" (str.at var5 152)))
(assert (= "." (str.at var4 917)))
(assert (= "g" (str.at var7 237)))
(assert (= "{" (str.at var4 199)))
(assert (= "f" (str.at var22 326)))
(assert (= "Y" (str.at var21 66)))
(assert (= "v" (str.at var20 622)))
(assert (= "-" (str.at var4 570)))
(assert (= "[" (str.at var8 685)))
(assert (= "c" (str.at var33 326)))
(assert (= "`" (str.at var51 981)))
(assert (= "y" (str.at var59 707)))
(assert (= "d" (str.at var2 278)))
(assert (= "~" (str.at var39 233)))
(assert (= "1" (str.at var60 767)))
(assert (= "^" (str.at var40 78)))
(assert (= "M" (str.at var36 172)))
(assert (= "C" (str.at var0 110)))
(assert (= "Y" (str.at var58 307)))
(assert (= "N" (str.at var50 191)))
(assert (= "+" (str.at var2 885)))
(assert (= "-" (str.at var16 587)))
(assert (= "U" (str.at var31 261)))
(assert (= "6" (str.at var10 900)))
(assert (= "C" (str.at var20 240)))
(assert (= "/" (str.at var41 850)))
(assert (= "(" (str.at var22 793)))
(assert (= "6" (str.at var1 902)))
(assert (= "." (str.at var12 885)))
(assert (= "A" (str.at var45 89)))
(assert (= "P" (str.at var50 385)))
(assert (= "z" (str.at var30 105)))
(assert (= "k" (str.at var1 434)))
(assert (= "z" (str.at var49 777)))
(assert (= "/" (str.at var46 194)))
(assert (= "7" (str.at var6 914)))
(assert (= "~" (str.at var33 173)))
(assert (= "J" (str.at var58 258)))
(assert (= "G" (str.at var22 833)))
(assert (= "l" (str.at var34 267)))
(assert (= "j" (str.at var5 226)))
(assert (= "<" (str.at var54 81)))
(assert (= "D" (str.at var42 327)))
(assert (= """" (str.at var26 386)))
(assert (= "q" (str.at var25 294)))
(assert (= "*" (str.at var13 21)))
(assert (= "[" (str.at var29 506)))
(assert (= "$" (str.at var13 54)))
(assert (= """" (str.at var52 892)))
(assert (= "W" (str.at var6 240)))
(assert (= "'" (str.at var52 339)))
(assert (= "O" (str.at var30 567)))
(assert (= ">" (str.at var34 430)))
(assert (= "i" (str.at var39 279)))
(assert (= "H" (str.at var53 730)))
(assert (= "Z" (str.at var1 963)))
(assert (= "S" (str.at var53 448)))
(assert (= "V" (str.at var22 763)))
(assert (= "7" (str.at var18 637)))
(assert (= "^" (str.at var59 212)))
(assert (= "k" (str.at var27 762)))
(assert (= "`" (str.at var47 406)))
(assert (= "t" (str.at var9 711)))
(assert (= "a" (str.at var20 653)))
(assert (= "4" (str.at var4 248)))
(assert (= "&" (str.at var54 736)))
(assert (= "f" (str.at var29 398)))
(assert (= "X" (str.at var42 201)))
(assert (= "K" (str.at var18 42)))
(assert (= "7" (str.at var30 402)))
(assert (= "?" (str.at var22 800)))
(assert (= "t" (str.at var49 231)))
(assert (= "0" (str.at var8 27)))
(assert (= "\\" (str.at var5 798)))
(assert (= "6" (str.at var9 703)))
(assert (= "8" (str.at var43 942)))
(assert (= "N" (str.at var28 131)))
(assert (= "W" (str.at var5 446)))
(assert (= "O" (str.at var11 274)))
(assert (= "s" (str.at var47 919)))
(assert (= "#" (str.at var25 372)))
(assert (= "]" (str.at var41 22)))
(assert (= "<" (str.at var35 742)))
(assert (= "+" (str.at var13 779)))
(assert (= "t" (str.at var18 203)))
(assert (= "-" (str.at var23 533)))
(assert (= "B" (str.at var35 561)))
(assert (= "|" (str.at var16 334)))
(assert (= "G" (str.at var51 789)))
(assert (= "2" (str.at var14 419)))
(assert (= "D" (str.at var49 868)))
(assert (= "T" (str.at var45 701)))
(assert (= ">" (str.at var7 995)))
(assert (= "X" (str.at var5 948)))
(assert (= "[" (str.at var59 612)))
(assert (= "Z" (str.at var30 766)))
(assert (= "C" (str.at var41 546)))
(assert (= "W" (str.at var9 423)))
(assert (= "_" (str.at var25 653)))
(assert (= "I" (str.at var31 230)))
(assert (= "9" (str.at var32 67)))
(assert (= "E" (str.at var41 826)))
(assert (= "&" (str.at var42 39)))
(assert (= "k" (str.at var2 384)))
(assert (= "C" (str.at var12 766)))
(assert (= "V" (str.at var37 797)))
(assert (= "K" (str.at var26 670)))
(assert (= "K" (str.at var10 769)))
(assert (= "6" (str.at var4 658)))
(assert (= "O" (str.at var56 327)))
(assert (= "&" (str.at var14 381)))
(assert (= "f" (str.at var26 230)))
(assert (= "O" (str.at var44 810)))
(assert (= ">" (str.at var10 112)))
(assert (= "3" (str.at var34 288)))
(assert (= "O" (str.at var36 781)))
(assert (= "?" (str.at var23 273)))
(assert (= "Y" (str.at var0 898)))
(assert (= "M" (str.at var22 784)))
(assert (= "<" (str.at var27 214)))
(assert (= "K" (str.at var13 792)))
(assert (= "%" (str.at var22 437)))
(assert (= "O" (str.at var14 674)))
(assert (= "M" (str.at var31 208)))
(assert (= "z" (str.at var43 742)))
(assert (= "T" (str.at var18 673)))
(assert (= "m" (str.at var49 173)))
(assert (= "V" (str.at var20 575)))
(assert (= "x" (str.at var24 66)))
(assert (= "+" (str.at var5 688)))
(assert (= "S" (str.at var16 966)))
(assert (= "b" (str.at var10 288)))
(assert (= "6" (str.at var32 167)))
(assert (= "(" (str.at var4 630)))
(assert (= "a" (str.at var18 350)))
(assert (= "A" (str.at var4 909)))
(assert (= ":" (str.at var43 220)))
(assert (= "|" (str.at var60 307)))
(assert (= "Z" (str.at var36 689)))
(assert (= "`" (str.at var34 367)))
(assert (= "o" (str.at var51 202)))
(assert (= "M" (str.at var22 227)))
(assert (= "<" (str.at var27 975)))
(assert (= "^" (str.at var59 625)))
(assert (= "(" (str.at var38 809)))
(assert (= "c" (str.at var54 114)))
(assert (= "!" (str.at var44 613)))
(assert (= ">" (str.at var22 702)))
(assert (= "$" (str.at var43 412)))
(assert (= "P" (str.at var31 159)))
(assert (= "A" (str.at var51 992)))
(assert (= ")" (str.at var49 555)))
(assert (= "J" (str.at var43 754)))
(assert (= "w" (str.at var33 35)))
(assert (= "A" (str.at var22 771)))
(assert (= "y" (str.at var44 195)))
(assert (= "_" (str.at var16 674)))
(assert (= "u" (str.at var45 734)))
(assert (= "r" (str.at var52 442)))
(assert (= "l" (str.at var8 844)))
(assert (= "4" (str.at var49 330)))
(assert (= "J" (str.at var20 918)))
(assert (= "=" (str.at var2 938)))
(assert (= "2" (str.at var23 184)))
(assert (= "T" (str.at var47 408)))
(assert (= "Y" (str.at var21 315)))
(assert (= "]" (str.at var46 187)))
(assert (= "g" (str.at var55 578)))
(assert (= "*" (str.at var10 350)))
(assert (= "7" (str.at var18 504)))
(assert (= "j" (str.at var4 700)))
(assert (= "B" (str.at var25 271)))
(assert (= "y" (str.at var12 584)))
(assert (= "#" (str.at var2 268)))
(assert (= "n" (str.at var34 652)))
(assert (= "B" (str.at var19 583)))
(assert (= "X" (str.at var55 957)))
(assert (= "S" (str.at var39 397)))
(assert (= "i" (str.at var44 53)))
(assert (= "G" (str.at var24 782)))
(assert (= "p" (str.at var42 465)))
(assert (= "D" (str.at var16 611)))
(assert (= ">" (str.at var43 904)))
(assert (= "f" (str.at var47 786)))
(assert (= "8" (str.at var29 183)))
(assert (= "*" (str.at var60 783)))
(assert (= "^" (str.at var45 283)))
(assert (= "w" (str.at var25 903)))
(assert (= "@" (str.at var28 720)))
(assert (= "M" (str.at var9 654)))
(assert (= "}" (str.at var19 436)))
(assert (= "`" (str.at var25 581)))
(assert (= "h" (str.at var6 871)))
(assert (= "t" (str.at var60 544)))
(assert (= "7" (str.at var30 711)))
(assert (= "j" (str.at var12 880)))
(assert (= "7" (str.at var20 568)))
(assert (= "P" (str.at var8 328)))
(assert (= "9" (str.at var24 68)))
(assert (= "x" (str.at var43 915)))
(assert (= ">" (str.at var38 593)))
(assert (= "*" (str.at var45 920)))
(assert (= "." (str.at var4 665)))
(assert (= "p" (str.at var4 166)))
(assert (= ";" (str.at var43 617)))
(assert (= "2" (str.at var17 680)))
(assert (= "C" (str.at var27 303)))
(assert (= ";" (str.at var8 807)))
(assert (= "9" (str.at var33 986)))
(assert (= "k" (str.at var25 336)))
(assert (= "r" (str.at var0 672)))
(assert (= "K" (str.at var44 421)))
(assert (= "(" (str.at var6 510)))
(assert (= "%" (str.at var29 337)))
(assert (= "-" (str.at var14 334)))
(assert (= "}" (str.at var50 670)))
(assert (= "G" (str.at var20 508)))
(assert (= "?" (str.at var13 751)))
(assert (= "w" (str.at var20 762)))
(assert (= "$" (str.at var8 490)))
(assert (= "Q" (str.at var43 397)))
(assert (= "b" (str.at var13 27)))
(assert (= "}" (str.at var36 204)))
(assert (= "k" (str.at var56 949)))
(assert (= "J" (str.at var38 821)))
(assert (= "4" (str.at var55 915)))
(assert (= "v" (str.at var5 949)))
(assert (= "?" (str.at var6 46)))
(assert (= ")" (str.at var23 918)))
(assert (= "5" (str.at var24 865)))
(assert (= "u" (str.at var49 737)))
(assert (= "x" (str.at var1 922)))
(assert (= "G" (str.at var35 805)))
(assert (= "." (str.at var35 488)))
(assert (= "p" (str.at var37 132)))
(assert (= "R" (str.at var36 939)))
(assert (= "]" (str.at var29 223)))
(assert (= "N" (str.at var57 34)))
(assert (= "M" (str.at var48 114)))
(assert (= "$" (str.at var51 20)))
(assert (= "N" (str.at var28 209)))
(assert (= "*" (str.at var42 846)))
(assert (= "l" (str.at var51 243)))
(assert (= "h" (str.at var11 587)))
(assert (= "p" (str.at var10 577)))
(assert (= "i" (str.at var24 660)))
(assert (= "&" (str.at var36 526)))
(assert (= "b" (str.at var13 32)))
(assert (= "s" (str.at var44 754)))
(assert (= "W" (str.at var40 133)))
(assert (= "g" (str.at var51 748)))
(assert (= "b" (str.at var38 934)))
(assert (= "}" (str.at var9 65)))
(assert (= "n" (str.at var19 695)))
(assert (= "J" (str.at var2 390)))
(assert (= "!" (str.at var45 344)))
(assert (= "&" (str.at var42 548)))
(assert (= "q" (str.at var15 38)))
(assert (= "d" (str.at var7 915)))
(assert (= "-" (str.at var14 63)))
(assert (= "J" (str.at var19 854)))
(assert (= "P" (str.at var27 58)))
(assert (= "S" (str.at var55 320)))
(assert (= "/" (str.at var44 378)))
(assert (= "s" (str.at var7 265)))
(assert (= "i" (str.at var16 900)))
(assert (= "c" (str.at var27 591)))
(assert (= "a" (str.at var43 760)))
(assert (= "*" (str.at var5 391)))
(assert (= "B" (str.at var23 45)))
(assert (= "@" (str.at var46 487)))
(assert (= "d" (str.at var41 685)))
(assert (= "#" (str.at var39 170)))
(assert (= "r" (str.at var17 488)))
(assert (= "s" (str.at var16 78)))
(assert (= ">" (str.at var47 393)))
(assert (= "{" (str.at var15 694)))
(assert (= "9" (str.at var21 640)))
(assert (= "," (str.at var32 102)))
(assert (= "l" (str.at var2 707)))
(assert (= "A" (str.at var55 226)))
(assert (= "~" (str.at var47 606)))
(assert (= "2" (str.at var3 106)))
(assert (= "p" (str.at var20 347)))
(assert (= "W" (str.at var7 651)))
(assert (= "|" (str.at var24 984)))
(assert (= "<" (str.at var19 364)))
(assert (= "3" (str.at var24 890)))
(assert (= "u" (str.at var42 937)))
(assert (= "," (str.at var18 974)))
(assert (= "F" (str.at var15 259)))
(assert (= ")" (str.at var59 129)))
(assert (= "z" (str.at var24 141)))
(assert (= "3" (str.at var58 704)))
(assert (= "S" (str.at var3 287)))
(assert (= "j" (str.at var34 271)))
(assert (= "T" (str.at var44 920)))
(assert (= "d" (str.at var8 676)))
(assert (= "d" (str.at var20 105)))
(assert (= ":" (str.at var23 848)))
(assert (= "z" (str.at var39 627)))
(assert (= "L" (str.at var13 600)))
(assert (= "1" (str.at var11 640)))
(assert (= ")" (str.at var53 249)))
(assert (= "B" (str.at var19 571)))
(assert (= "F" (str.at var13 92)))
(assert (= "\\" (str.at var15 490)))
(assert (= "!" (str.at var8 257)))
(assert (= "k" (str.at var33 980)))
(assert (= "H" (str.at var0 748)))
(assert (= "M" (str.at var24 501)))
(assert (= "T" (str.at var21 965)))
(assert (= "g" (str.at var31 112)))
(assert (= "6" (str.at var36 116)))
(assert (= "f" (str.at var41 452)))
(assert (= "X" (str.at var15 482)))
(assert (= "<" (str.at var54 345)))
(assert (= "d" (str.at var1 760)))
(assert (= "o" (str.at var22 262)))
(assert (= "O" (str.at var9 246)))
(assert (= "V" (str.at var40 640)))
(assert (= "9" (str.at var11 210)))
(assert (= "(" (str.at var40 528)))
(assert (= "9" (str.at var13 375)))
(assert (= "i" (str.at var0 523)))
(assert (= "|" (str.at var3 463)))
(assert (= "!" (str.at var3 85)))
(assert (= "*" (str.at var30 691)))
(assert (= "{" (str.at var40 937)))
(assert (= "M" (str.at var23 644)))
(assert (= "G" (str.at var59 76)))
(assert (= "l" (str.at var16 778)))
(assert (= "(" (str.at var60 39)))
(assert (= "C" (str.at var42 123)))
(assert (= "r" (str.at var28 105)))
(assert (= "r" (str.at var52 899)))
(assert (= "." (str.at var4 782)))
(assert (= "P" (str.at var37 716)))
(assert (= "m" (str.at var9 325)))
(assert (= "I" (str.at var19 42)))
(assert (= "`" (str.at var21 13)))
(assert (= "w" (str.at var32 166)))
(assert (= "[" (str.at var35 894)))
(assert (= "P" (str.at var9 351)))
(assert (= "*" (str.at var41 538)))
(assert (= "O" (str.at var58 365)))
(assert (= "+" (str.at var9 768)))
(assert (= "b" (str.at var35 140)))
(assert (= "}" (str.at var31 121)))
(assert (= "q" (str.at var10 944)))
(assert (= "2" (str.at var31 156)))
(assert (= "e" (str.at var11 225)))
(assert (= "$" (str.at var38 814)))
(assert (= "(" (str.at var14 983)))
(assert (= "I" (str.at var10 829)))
(assert (= "L" (str.at var8 50)))
(assert (= "W" (str.at var1 17)))
(assert (= ":" (str.at var19 59)))
(assert (= "Z" (str.at var11 121)))
(assert (= "{" (str.at var24 119)))
(assert (= "[" (str.at var54 944)))
(assert (= "?" (str.at var49 29)))
(assert (= "H" (str.at var1 903)))
(assert (= "B" (str.at var27 714)))
(assert (= "m" (str.at var55 892)))
(assert (= "?" (str.at var53 646)))
(assert (= "0" (str.at var58 245)))
(assert (= "h" (str.at var16 985)))
(assert (= "D" (str.at var23 27)))
(assert (= "6" (str.at var29 3)))
(assert (= "e" (str.at var33 713)))
(assert (= "b" (str.at var18 276)))
(assert (= """" (str.at var8 518)))
(assert (= ":" (str.at var29 385)))
(assert (= "U" (str.at var12 356)))
(assert (= ">" (str.at var45 443)))
(assert (= "'" (str.at var36 608)))
(assert (= "b" (str.at var9 673)))
(assert (= "r" (str.at var13 990)))
(assert (= "1" (str.at var5 562)))
(assert (= "V" (str.at var2 99)))
(assert (= "r" (str.at var31 586)))
(assert (= "$" (str.at var35 583)))
(assert (= "q" (str.at var13 541)))
(assert (= "," (str.at var1 780)))
(assert (= "X" (str.at var48 7)))
(assert (= "{" (str.at var40 141)))
(assert (= "{" (str.at var2 419)))
(assert (= "-" (str.at var60 40)))
(assert (= "&" (str.at var44 959)))
(assert (= "/" (str.at var11 586)))
(assert (= "U" (str.at var16 459)))
(assert (= "`" (str.at var59 721)))
(assert (= "|" (str.at var51 731)))
(assert (= "," (str.at var52 842)))
(assert (= "I" (str.at var3 55)))
(assert (= "r" (str.at var4 253)))
(assert (= "4" (str.at var60 505)))
(assert (= "R" (str.at var30 798)))
(assert (= """" (str.at var55 724)))
(assert (= "6" (str.at var41 99)))
(assert (= "a" (str.at var47 347)))
(assert (= "(" (str.at var32 842)))
(assert (= "T" (str.at var19 475)))
(assert (= "x" (str.at var10 968)))
(assert (= "D" (str.at var33 386)))
(assert (= "=" (str.at var38 523)))
(assert (= "K" (str.at var16 471)))
(assert (= "R" (str.at var15 278)))
(assert (= "k" (str.at var51 817)))
(assert (= "F" (str.at var47 154)))
(assert (= "!" (str.at var47 15)))
(assert (= "k" (str.at var14 611)))
(assert (= "R" (str.at var49 388)))
(assert (= "-" (str.at var36 788)))
(assert (= "]" (str.at var21 682)))
(assert (= "." (str.at var9 610)))
(assert (= "y" (str.at var28 334)))
(assert (= "^" (str.at var17 628)))
(assert (= "4" (str.at var3 538)))
(assert (= "?" (str.at var56 279)))
(assert (= "S" (str.at var11 998)))
(assert (= "]" (str.at var2 65)))
(assert (= "'" (str.at var37 818)))
(assert (= "H" (str.at var38 545)))
(assert (= "1" (str.at var57 756)))
(assert (= "p" (str.at var18 374)))
(assert (= "h" (str.at var15 917)))
(assert (= "e" (str.at var27 780)))
(assert (= "#" (str.at var29 513)))
(assert (= "p" (str.at var22 353)))
(assert (= "a" (str.at var29 577)))
(assert (= "D" (str.at var54 652)))
(assert (= "d" (str.at var28 637)))
(assert (= "1" (str.at var46 247)))
(assert (= "1" (str.at var5 447)))
(assert (= "y" (str.at var23 121)))
(assert (= "K" (str.at var23 755)))
(assert (= "1" (str.at var50 854)))
(assert (= "'" (str.at var47 594)))
(assert (= "#" (str.at var0 723)))
(assert (= "9" (str.at var20 460)))
(assert (= "C" (str.at var42 356)))
(assert (= "J" (str.at var26 83)))
(assert (= "," (str.at var31 965)))
(assert (= "a" (str.at var14 45)))
(assert (= "Y" (str.at var17 891)))
(assert (= "/" (str.at var33 82)))
(assert (= "n" (str.at var49 282)))
(assert (= "l" (str.at var3 314)))
(assert (= "P" (str.at var3 828)))
(assert (= "I" (str.at var16 301)))
(assert (= "2" (str.at var47 97)))
(assert (= "B" (str.at var8 800)))
(assert (= "]" (str.at var1 296)))
(assert (= "q" (str.at var27 893)))
(assert (= "v" (str.at var46 983)))
(assert (= "i" (str.at var39 180)))
(assert (= "V" (str.at var22 311)))
(assert (= "|" (str.at var27 703)))
(assert (= "z" (str.at var29 322)))
(assert (= "3" (str.at var4 478)))
(assert (= "%" (str.at var29 252)))
(assert (= "5" (str.at var2 918)))
(assert (= "/" (str.at var51 426)))
(assert (= """" (str.at var14 485)))
(assert (= ">" (str.at var7 343)))
(assert (= "q" (str.at var51 911)))
(assert (= ";" (str.at var23 16)))
(assert (= "5" (str.at var51 429)))
(assert (= "U" (str.at var24 833)))
(assert (= "H" (str.at var3 963)))
(assert (= "H" (str.at var39 31)))
(assert (= "~" (str.at var9 527)))
(assert (= "e" (str.at var0 977)))
(assert (= "l" (str.at var32 930)))
(assert (= "n" (str.at var45 163)))
(assert (= "S" (str.at var29 691)))
(assert (= "R" (str.at var60 856)))
(assert (= "?" (str.at var8 861)))
(assert (= "s" (str.at var57 481)))
(assert (= "F" (str.at var10 222)))
(assert (= "I" (str.at var22 67)))
(assert (= "&" (str.at var30 469)))
(assert (= "W" (str.at var15 983)))
(assert (= "&" (str.at var60 831)))
(assert (= "a" (str.at var44 674)))
(assert (= """" (str.at var9 145)))
(assert (= "Y" (str.at var19 386)))
(assert (= "0" (str.at var58 285)))
(assert (= "N" (str.at var50 356)))
(assert (= "1" (str.at var46 974)))
(assert (= "9" (str.at var59 926)))
(assert (= "d" (str.at var21 545)))
(assert (= "g" (str.at var43 539)))
(assert (= "h" (str.at var2 137)))
(assert (= "^" (str.at var17 139)))
(assert (= "A" (str.at var58 968)))
(assert (= "i" (str.at var13 196)))
(assert (= "o" (str.at var8 428)))
(assert (= "\\" (str.at var11 61)))
(assert (= "k" (str.at var0 211)))
(assert (= "Y" (str.at var25 740)))
(assert (= ":" (str.at var23 208)))
(assert (= "q" (str.at var28 432)))
(assert (= "L" (str.at var31 663)))
(assert (= "^" (str.at var37 326)))
(assert (= "@" (str.at var56 416)))
(assert (= ";" (str.at var43 369)))
(assert (= "@" (str.at var32 127)))
(assert (= "y" (str.at var33 485)))
(assert (= "'" (str.at var34 700)))
(assert (= "{" (str.at var22 911)))
(assert (= "+" (str.at var39 676)))
(assert (= "z" (str.at var33 893)))
(assert (= "~" (str.at var2 312)))
(assert (= "9" (str.at var33 941)))
(assert (= "L" (str.at var0 935)))
(assert (= "9" (str.at var27 177)))
(assert (= "H" (str.at var16 881)))
(assert (= "%" (str.at var42 449)))
(assert (= "6" (str.at var24 1000)))
(assert (= "B" (str.at var20 594)))
(assert (= "m" (str.at var40 687)))
(assert (= "+" (str.at var15 927)))
(assert (= "/" (str.at var19 633)))
(assert (= "4" (str.at var10 289)))
(assert (= "|" (str.at var58 840)))
(assert (= "h" (str.at var52 2)))
(assert (= "e" (str.at var47 616)))
(assert (= "%" (str.at var2 978)))
(assert (= "L" (str.at var21 354)))
(assert (= "|" (str.at var38 290)))
(assert (= "}" (str.at var24 59)))
(assert (= "j" (str.at var18 201)))
(assert (= "}" (str.at var25 707)))
(assert (= "%" (str.at var29 688)))
(assert (= "s" (str.at var10 569)))
(assert (= "," (str.at var5 61)))
(assert (= "_" (str.at var60 442)))
(assert (= "/" (str.at var28 679)))
(assert (= "7" (str.at var40 979)))
(assert (= "l" (str.at var60 752)))
(assert (= "G" (str.at var40 208)))
(assert (= "q" (str.at var16 415)))
(assert (= "^" (str.at var16 341)))
(assert (= "]" (str.at var26 721)))
(assert (= "`" (str.at var35 331)))
(assert (= "-" (str.at var37 278)))
(assert (= "-" (str.at var20 277)))
(assert (= "Z" (str.at var26 327)))
(assert (= "Y" (str.at var13 320)))
(assert (= "D" (str.at var27 382)))
(assert (= "W" (str.at var41 364)))
(assert (= "|" (str.at var6 133)))
(assert (= "v" (str.at var1 118)))
(assert (= "$" (str.at var39 755)))
(assert (= "-" (str.at var52 318)))
(assert (= "F" (str.at var12 59)))
(assert (= "}" (str.at var37 745)))
(assert (= "C" (str.at var53 35)))
(assert (= "M" (str.at var18 323)))
(assert (= "." (str.at var8 748)))
(assert (= "d" (str.at var59 844)))
(assert (= "a" (str.at var11 844)))
(assert (= "M" (str.at var60 973)))
(assert (= "8" (str.at var58 229)))
(assert (= "q" (str.at var43 194)))
(assert (= "_" (str.at var3 733)))
(assert (= "T" (str.at var10 34)))
(assert (= "6" (str.at var57 70)))
(assert (= "3" (str.at var59 510)))
(assert (= "s" (str.at var35 302)))
(assert (= "K" (str.at var12 849)))
(assert (= "g" (str.at var12 640)))
(assert (= "g" (str.at var26 966)))
(assert (= "X" (str.at var5 588)))
(assert (= "\\" (str.at var20 414)))
(assert (= "[" (str.at var50 513)))
(assert (= "D" (str.at var7 717)))
(assert (= ";" (str.at var54 500)))
(assert (= "G" (str.at var23 684)))
(assert (= "Q" (str.at var60 823)))
(assert (= "e" (str.at var32 797)))
(assert (= "^" (str.at var4 540)))
(assert (= "m" (str.at var3 537)))
(assert (= "~" (str.at var51 145)))
(assert (= "D" (str.at var26 848)))
(assert (= "|" (str.at var53 924)))
(assert (= "0" (str.at var49 91)))
(assert (= ">" (str.at var59 808)))
(assert (= "Q" (str.at var52 79)))
(assert (= "O" (str.at var33 204)))
(assert (= "e" (str.at var56 519)))
(assert (= "n" (str.at var48 111)))
(assert (= "!" (str.at var5 876)))
(assert (= "L" (str.at var16 747)))
(assert (= "~" (str.at var50 154)))
(assert (= "8" (str.at var31 537)))
(assert (= "m" (str.at var18 465)))
(assert (= "r" (str.at var28 927)))
(assert (= "l" (str.at var40 593)))
(assert (= "A" (str.at var39 21)))
(assert (= "J" (str.at var4 809)))
(assert (= "9" (str.at var50 165)))
(assert (= "^" (str.at var25 462)))
(assert (= "^" (str.at var59 616)))
(assert (= "R" (str.at var4 70)))
(assert (= "v" (str.at var2 126)))
(assert (= "!" (str.at var7 550)))
(assert (= "\\" (str.at var54 881)))
(assert (= "k" (str.at var16 396)))
(assert (= "R" (str.at var10 78)))
(assert (= "S" (str.at var59 147)))
(assert (= "P" (str.at var49 887)))
(assert (= "9" (str.at var56 817)))
(assert (= "[" (str.at var9 925)))
(assert (= "O" (str.at var42 419)))
(assert (= "3" (str.at var12 182)))
(assert (= "k" (str.at var57 415)))
(assert (= "[" (str.at var47 366)))
(assert (= "D" (str.at var6 804)))
(assert (= "{" (str.at var40 341)))
(assert (= "." (str.at var10 677)))
(assert (= """" (str.at var46 278)))
(assert (= "Y" (str.at var36 611)))
(assert (= "<" (str.at var7 368)))
(assert (= "o" (str.at var1 172)))
(assert (= "w" (str.at var36 355)))
(assert (= "[" (str.at var0 177)))
(assert (= "4" (str.at var47 717)))
(assert (= "s" (str.at var23 75)))
(assert (= "#" (str.at var19 804)))
(assert (= "3" (str.at var50 373)))
(assert (= "a" (str.at var41 264)))
(assert (= ">" (str.at var43 462)))
(assert (= "S" (str.at var19 882)))
(check-sat)